p cnf 386 460
-18 -2 -8 21 22 0
-18 -2 -8 21 -22 0
-18 -2 -8 -21 23 0
-18 -2 -8 -21 -23 0
4 -10 -20 24 25 0
4 -10 -20 24 -25 0
4 -10 -20 -24 26 0
4 -10 -20 -24 -26 0
7 -14 -11 27 28 0
7 -14 -11 27 -28 0
7 -14 -11 -27 29 0
7 -14 -11 -27 -29 0
19 -13 -18 30 31 0
19 -13 -18 30 -31 0
19 -13 -18 -30 32 0
19 -13 -18 -30 -32 0
5 -8 -19 33 34 0
5 -8 -19 33 -34 0
5 -8 -19 -33 35 0
5 -8 -19 -33 -35 0
11 -5 -1 36 37 0
11 -5 -1 36 -37 0
11 -5 -1 -36 38 0
11 -5 -1 -36 -38 0
-5 16 -9 39 40 0
-5 16 -9 39 -40 0
-5 16 -9 -39 41 0
-5 16 -9 -39 -41 0
14 -5 12 42 43 0
14 -5 12 42 -43 0
14 -5 12 -42 44 0
14 -5 12 -42 -44 0
4 16 3 45 46 0
4 16 3 45 -46 0
4 16 3 -45 47 0
4 16 3 -45 -47 0
6 14 -8 48 49 0
6 14 -8 48 -49 0
6 14 -8 -48 50 0
6 14 -8 -48 -50 0
12 -5 17 51 52 0
12 -5 17 51 -52 0
12 -5 17 -51 53 0
12 -5 17 -51 -53 0
-1 -4 -3 54 55 0
-1 -4 -3 54 -55 0
-1 -4 -3 -54 56 0
-1 -4 -3 -54 -56 0
4 -19 -8 57 58 0
4 -19 -8 57 -58 0
4 -19 -8 -57 59 0
4 -19 -8 -57 -59 0
-10 -12 19 60 61 0
-10 -12 19 60 -61 0
-10 -12 19 -60 62 0
-10 -12 19 -60 -62 0
3 -9 16 63 64 0
3 -9 16 63 -64 0
3 -9 16 -63 65 0
3 -9 16 -63 -65 0
-16 -17 4 66 67 0
-16 -17 4 66 -67 0
-16 -17 4 -66 68 0
-16 -17 4 -66 -68 0
1 -15 -5 69 70 0
1 -15 -5 69 -70 0
1 -15 -5 -69 71 0
1 -15 -5 -69 -71 0
19 17 -16 72 73 0
19 17 -16 72 -73 0
19 17 -16 -72 74 0
19 17 -16 -72 -74 0
2 12 -4 75 76 0
2 12 -4 75 -76 0
2 12 -4 -75 77 0
2 12 -4 -75 -77 0
8 -12 -7 78 79 0
8 -12 -7 78 -79 0
8 -12 -7 -78 80 0
8 -12 -7 -78 -80 0
-11 16 -14 81 82 0
-11 16 -14 81 -82 0
-11 16 -14 -81 83 0
-11 16 -14 -81 -83 0
-11 -1 -2 84 85 0
-11 -1 -2 84 -85 0
-11 -1 -2 -84 86 0
-11 -1 -2 -84 -86 0
-13 -11 16 87 88 0
-13 -11 16 87 -88 0
-13 -11 16 -87 89 0
-13 -11 16 -87 -89 0
1 -6 11 90 91 0
1 -6 11 90 -91 0
1 -6 11 -90 92 0
1 -6 11 -90 -92 0
-9 6 -16 93 94 0
-9 6 -16 93 -94 0
-9 6 -16 -93 95 0
-9 6 -16 -93 -95 0
-2 13 -9 96 97 0
-2 13 -9 96 -97 0
-2 13 -9 -96 98 0
-2 13 -9 -96 -98 0
-13 15 -16 99 100 0
-13 15 -16 99 -100 0
-13 15 -16 -99 101 0
-13 15 -16 -99 -101 0
-13 -1 -8 102 103 0
-13 -1 -8 102 -103 0
-13 -1 -8 -102 104 0
-13 -1 -8 -102 -104 0
-20 5 -14 105 106 0
-20 5 -14 105 -106 0
-20 5 -14 -105 107 0
-20 5 -14 -105 -107 0
9 -19 -2 108 109 0
9 -19 -2 108 -109 0
9 -19 -2 -108 110 0
9 -19 -2 -108 -110 0
11 15 -18 111 112 0
11 15 -18 111 -112 0
11 15 -18 -111 113 0
11 15 -18 -111 -113 0
-2 -20 1 114 115 0
-2 -20 1 114 -115 0
-2 -20 1 -114 116 0
-2 -20 1 -114 -116 0
13 -20 -1 117 118 0
13 -20 -1 117 -118 0
13 -20 -1 -117 119 0
13 -20 -1 -117 -119 0
-7 19 -1 120 121 0
-7 19 -1 120 -121 0
-7 19 -1 -120 122 0
-7 19 -1 -120 -122 0
20 5 -2 123 124 0
20 5 -2 123 -124 0
20 5 -2 -123 125 0
20 5 -2 -123 -125 0
-13 19 14 126 127 0
-13 19 14 126 -127 0
-13 19 14 -126 128 0
-13 19 14 -126 -128 0
-20 6 12 129 130 0
-20 6 12 129 -130 0
-20 6 12 -129 131 0
-20 6 12 -129 -131 0
-18 7 -11 132 133 0
-18 7 -11 132 -133 0
-18 7 -11 -132 134 0
-18 7 -11 -132 -134 0
11 -5 -17 135 136 0
11 -5 -17 135 -136 0
11 -5 -17 -135 137 0
11 -5 -17 -135 -137 0
3 -16 -18 138 139 0
3 -16 -18 138 -139 0
3 -16 -18 -138 140 0
3 -16 -18 -138 -140 0
-17 19 -7 141 142 0
-17 19 -7 141 -142 0
-17 19 -7 -141 143 0
-17 19 -7 -141 -143 0
14 9 18 144 145 0
14 9 18 144 -145 0
14 9 18 -144 146 0
14 9 18 -144 -146 0
-9 -4 -11 147 148 0
-9 -4 -11 147 -148 0
-9 -4 -11 -147 149 0
-9 -4 -11 -147 -149 0
-16 6 -2 150 151 0
-16 6 -2 150 -151 0
-16 6 -2 -150 152 0
-16 6 -2 -150 -152 0
10 -11 9 153 154 0
10 -11 9 153 -154 0
10 -11 9 -153 155 0
10 -11 9 -153 -155 0
1 10 6 156 157 0
1 10 6 156 -157 0
1 10 6 -156 158 0
1 10 6 -156 -158 0
19 18 -16 159 160 0
19 18 -16 159 -160 0
19 18 -16 -159 161 0
19 18 -16 -159 -161 0
11 7 10 162 163 0
11 7 10 162 -163 0
11 7 10 -162 164 0
11 7 10 -162 -164 0
-8 10 17 165 166 0
-8 10 17 165 -166 0
-8 10 17 -165 167 0
-8 10 17 -165 -167 0
-6 -11 -13 168 169 0
-6 -11 -13 168 -169 0
-6 -11 -13 -168 170 0
-6 -11 -13 -168 -170 0
-9 -4 -20 171 172 0
-9 -4 -20 171 -172 0
-9 -4 -20 -171 173 0
-9 -4 -20 -171 -173 0
-11 -14 13 174 175 0
-11 -14 13 174 -175 0
-11 -14 13 -174 176 0
-11 -14 13 -174 -176 0
20 -4 -12 177 178 0
20 -4 -12 177 -178 0
20 -4 -12 -177 179 0
20 -4 -12 -177 -179 0
9 1 -13 180 181 0
9 1 -13 180 -181 0
9 1 -13 -180 182 0
9 1 -13 -180 -182 0
10 -13 12 183 184 0
10 -13 12 183 -184 0
10 -13 12 -183 185 0
10 -13 12 -183 -185 0
17 15 6 186 187 0
17 15 6 186 -187 0
17 15 6 -186 188 0
17 15 6 -186 -188 0
-20 -18 -12 189 190 0
-20 -18 -12 189 -190 0
-20 -18 -12 -189 191 0
-20 -18 -12 -189 -191 0
-11 14 6 192 193 0
-11 14 6 192 -193 0
-11 14 6 -192 194 0
-11 14 6 -192 -194 0
1 5 -15 195 196 0
1 5 -15 195 -196 0
1 5 -15 -195 197 0
1 5 -15 -195 -197 0
14 20 -6 198 199 0
14 20 -6 198 -199 0
14 20 -6 -198 200 0
14 20 -6 -198 -200 0
19 -4 -16 201 202 0
19 -4 -16 201 -202 0
19 -4 -16 -201 203 0
19 -4 -16 -201 -203 0
-8 17 -20 204 205 0
-8 17 -20 204 -205 0
-8 17 -20 -204 206 0
-8 17 -20 -204 -206 0
9 1 20 207 208 0
9 1 20 207 -208 0
9 1 20 -207 209 0
9 1 20 -207 -209 0
1 -10 -17 210 211 0
1 -10 -17 210 -211 0
1 -10 -17 -210 212 0
1 -10 -17 -210 -212 0
18 16 -19 213 214 0
18 16 -19 213 -214 0
18 16 -19 -213 215 0
18 16 -19 -213 -215 0
10 3 -5 216 217 0
10 3 -5 216 -217 0
10 3 -5 -216 218 0
10 3 -5 -216 -218 0
9 18 12 219 220 0
9 18 12 219 -220 0
9 18 12 -219 221 0
9 18 12 -219 -221 0
15 -5 -10 222 223 0
15 -5 -10 222 -223 0
15 -5 -10 -222 224 0
15 -5 -10 -222 -224 0
-3 -20 -15 225 226 0
-3 -20 -15 225 -226 0
-3 -20 -15 -225 227 0
-3 -20 -15 -225 -227 0
-9 -17 16 228 229 0
-9 -17 16 228 -229 0
-9 -17 16 -228 230 0
-9 -17 16 -228 -230 0
18 -6 -19 231 232 0
18 -6 -19 231 -232 0
18 -6 -19 -231 233 0
18 -6 -19 -231 -233 0
-1 20 5 234 235 0
-1 20 5 234 -235 0
-1 20 5 -234 236 0
-1 20 5 -234 -236 0
-10 -15 5 237 238 0
-10 -15 5 237 -238 0
-10 -15 5 -237 239 0
-10 -15 5 -237 -239 0
-8 -10 -2 240 241 0
-8 -10 -2 240 -241 0
-8 -10 -2 -240 242 0
-8 -10 -2 -240 -242 0
-14 13 11 243 244 0
-14 13 11 243 -244 0
-14 13 11 -243 245 0
-14 13 11 -243 -245 0
-5 9 -18 246 247 0
-5 9 -18 246 -247 0
-5 9 -18 -246 248 0
-5 9 -18 -246 -248 0
-17 -6 -3 249 250 0
-17 -6 -3 249 -250 0
-17 -6 -3 -249 251 0
-17 -6 -3 -249 -251 0
1 -6 7 252 253 0
1 -6 7 252 -253 0
1 -6 7 -252 254 0
1 -6 7 -252 -254 0
-10 7 -14 255 256 0
-10 7 -14 255 -256 0
-10 7 -14 -255 257 0
-10 7 -14 -255 -257 0
10 -19 -4 258 259 0
10 -19 -4 258 -259 0
10 -19 -4 -258 260 0
10 -19 -4 -258 -260 0
-9 2 7 261 262 0
-9 2 7 261 -262 0
-9 2 7 -261 263 0
-9 2 7 -261 -263 0
16 13 -6 264 265 0
16 13 -6 264 -265 0
16 13 -6 -264 266 0
16 13 -6 -264 -266 0
-8 10 5 267 268 0
-8 10 5 267 -268 0
-8 10 5 -267 269 0
-8 10 5 -267 -269 0
-2 16 -1 270 271 0
-2 16 -1 270 -271 0
-2 16 -1 -270 272 0
-2 16 -1 -270 -272 0
3 -19 16 273 274 0
3 -19 16 273 -274 0
3 -19 16 -273 275 0
3 -19 16 -273 -275 0
-12 -18 -11 276 277 0
-12 -18 -11 276 -277 0
-12 -18 -11 -276 278 0
-12 -18 -11 -276 -278 0
2 -12 -10 279 280 0
2 -12 -10 279 -280 0
2 -12 -10 -279 281 0
2 -12 -10 -279 -281 0
5 -6 -4 282 283 0
5 -6 -4 282 -283 0
5 -6 -4 -282 284 0
5 -6 -4 -282 -284 0
-17 -19 9 285 286 0
-17 -19 9 285 -286 0
-17 -19 9 -285 287 0
-17 -19 9 -285 -287 0
10 -15 7 288 289 0
10 -15 7 288 -289 0
10 -15 7 -288 290 0
10 -15 7 -288 -290 0
13 9 -20 291 292 0
13 9 -20 291 -292 0
13 9 -20 -291 293 0
13 9 -20 -291 -293 0
294 295 297 301 309 0
294 295 297 301 -309 0
294 295 297 -301 310 0
294 295 297 -301 -310 0
294 295 -297 302 311 0
294 295 -297 302 -311 0
294 295 -297 -302 312 0
294 295 -297 -302 -312 0
294 -295 298 303 313 0
294 -295 298 303 -313 0
294 -295 298 -303 314 0
294 -295 298 -303 -314 0
294 -295 -298 304 315 0
294 -295 -298 304 -315 0
294 -295 -298 -304 316 0
294 -295 -298 -304 -316 0
-294 296 299 305 317 0
-294 296 299 305 -317 0
-294 296 299 -305 318 0
-294 296 299 -305 -318 0
-294 296 -299 306 319 0
-294 296 -299 306 -319 0
-294 296 -299 -306 320 0
-294 296 -299 -306 -320 0
-294 -296 300 307 321 0
-294 -296 300 307 -321 0
-294 -296 300 -307 322 0
-294 -296 300 -307 -322 0
-294 -296 -300 308 323 0
-294 -296 -300 308 -323 0
-294 -296 -300 -308 324 0
-294 -296 -300 -308 -324 0
325 326 328 332 340 0
325 326 328 332 -340 0
325 326 328 -332 341 0
325 326 328 -332 -341 0
325 326 -328 333 342 0
325 326 -328 333 -342 0
325 326 -328 -333 343 0
325 326 -328 -333 -343 0
325 -326 329 334 344 0
325 -326 329 334 -344 0
325 -326 329 -334 345 0
325 -326 329 -334 -345 0
325 -326 -329 335 346 0
325 -326 -329 335 -346 0
325 -326 -329 -335 347 0
325 -326 -329 -335 -347 0
-325 327 330 336 348 0
-325 327 330 336 -348 0
-325 327 330 -336 349 0
-325 327 330 -336 -349 0
-325 327 -330 337 350 0
-325 327 -330 337 -350 0
-325 327 -330 -337 351 0
-325 327 -330 -337 -351 0
-325 -327 331 338 352 0
-325 -327 331 338 -352 0
-325 -327 331 -338 353 0
-325 -327 331 -338 -353 0
-325 -327 -331 339 354 0
-325 -327 -331 339 -354 0
-325 -327 -331 -339 355 0
-325 -327 -331 -339 -355 0
356 357 359 363 371 0
356 357 359 363 -371 0
356 357 359 -363 372 0
356 357 359 -363 -372 0
356 357 -359 364 373 0
356 357 -359 364 -373 0
356 357 -359 -364 374 0
356 357 -359 -364 -374 0
356 -357 360 365 375 0
356 -357 360 365 -375 0
356 -357 360 -365 376 0
356 -357 360 -365 -376 0
356 -357 -360 366 377 0
356 -357 -360 366 -377 0
356 -357 -360 -366 378 0
356 -357 -360 -366 -378 0
-356 358 361 367 379 0
-356 358 361 367 -379 0
-356 358 361 -367 380 0
-356 358 361 -367 -380 0
-356 358 -361 368 381 0
-356 358 -361 368 -381 0
-356 358 -361 -368 382 0
-356 358 -361 -368 -382 0
-356 -358 362 369 383 0
-356 -358 362 369 -383 0
-356 -358 362 -369 384 0
-356 -358 362 -369 -384 0
-356 -358 -362 370 385 0
-356 -358 -362 370 -385 0
-356 -358 -362 -370 386 0
-356 -358 -362 -370 -386 0

